job_count = 12 ;
duration = [|24, 5|4, 8|9, 3|21, 5|22, 13|13, 11|2, 10|20, 11|12, 5|22, 5|3, 3|3, 10|] ;
machine_count = 2 ;
cost = [|17, 36|23, 38|28, 28|22, 46|24, 48|26, 38|16, 45|27, 29|31, 29|20, 28|24, 41|28, 50|] ;
deadline = [40, 40, 40, 40, 40, 40, 40, 40, 40, 40, 40, 40] ;
release = [0, 0, 0, 0, 0, 0, 0, 0, 0, 0, 0, 0] ;
resource = [|7, 7|1, 1|6, 6|7, 7|3, 3|9, 9|8, 8|4, 4|5, 5|3, 3|1, 1|1, 1|] ;
capacities = [10, 10] ;
